10J3M/DAT/10J3MNTX-3.dat
10 3
26.424 5.1404
10.7807 3.2834
19.9538 4.467
30.8543 5.5547
24.8141 4.9814
23.294 4.8264
35.1629 5.9298
29.0989 5.3943
20.3188 4.5076
29.4748 5.4291
12.3785