10J3M/SOL/10J3MNTX-3.sol
solution status: optimal solution found
objective value:                     66.1803131940991
x#1#1                               0.891201933273429 	(obj:0)
x#1#3                               0.108798066726571 	(obj:0)
x#4#1                               0.344265602153391 	(obj:0)
x#4#2                               0.655734397846609 	(obj:0)
x#5#2                               0.663868017079825 	(obj:0)
x#5#3                               0.336131982920175 	(obj:0)
x#6#3                               0.975012431626057 	(obj:0)
x#7#1                              0.0827639114168816 	(obj:0)
x#7#3                               0.917236088583118 	(obj:0)
x#8#1                                               1 	(obj:0)
x#10#2                                              1 	(obj:0)
z                                    66.1803131940991 	(obj:1)
